NAME : sim33.71500.tour
COMMENT : Length = 71500
COMMENT : Found by LKH [Keld Helsgaun] Fri Sep 14 14:42:27 2018
TYPE : TOUR
DIMENSION : 33
TOUR_SECTION
1
2
19
24
33
32
12
25
18
16
22
30
20
15
21
9
11
27
5
6
13
3
28
14
7
26
4
8
10
31
17
29
23
-1
EOF
